
Gurobi 10.0.3 (linux64, gurobi_cl) logging started Fri Nov 10 20:49:03 2023

Set parameter Username
Set parameter TimeLimit to value 3600
Set parameter LogFile to value "RCPSP_1898.log"
Set parameter Threads to value 32
Academic license - for non-commercial use only - expires 2024-10-30
Using license file /home/jrivera6/gurobi-licenses/v1003/compute-0-34/gurobi.lic

Gurobi Optimizer version 10.0.3 build v10.0.3rc0 (linux64)
Copyright (c) 2023, Gurobi Optimization, LLC

Read MPS format model from file RCPSP_1898.mps
Reading time = 0.13 seconds
RCPSP_1898: 75288 rows, 29890 columns, 251703 nonzeros

CPU model: Intel(R) Xeon(R) Gold 6130 CPU @ 2.10GHz, instruction set [SSE2|AVX|AVX2|AVX512]
Thread count: 32 physical cores, 32 logical processors, using up to 32 threads

Optimize a model with 75288 rows, 29890 columns and 251703 nonzeros
Model fingerprint: 0x135d8fa4
Variable types: 122 continuous, 29768 integer (29768 binary)
Coefficient statistics:
  Matrix range     [1e+00, 6e+02]
  Objective range  [1e+00, 1e+00]
  Bounds range     [1e+00, 1e+00]
  RHS range        [1e+00, 7e+02]
Presolve removed 20435 rows and 5576 columns (presolve time = 5s) ...
Presolve removed 20435 rows and 5576 columns (presolve time = 10s) ...
Presolve removed 23967 rows and 6715 columns
Presolve time: 12.51s
Presolved: 51321 rows, 23175 columns, 177009 nonzeros
Variable types: 121 continuous, 23054 integer (23054 binary)

Deterministic concurrent LP optimizer: primal and dual simplex (primal and dual model)
Showing first log only...

Root relaxation presolved: 51306 rows, 23190 columns, 176979 nonzeros


Root simplex log...

Iteration    Objective       Primal Inf.    Dual Inf.      Time
       0    9.8821153e+01   2.847227e-02   2.450342e+08     14s
Concurrent spin time: 0.54s

Solved with dual simplex (primal model)

Root relaxation: objective 9.600000e+01, 7235 iterations, 2.41 seconds (0.22 work units)
Total elapsed time = 20.77s

    Nodes    |    Current Node    |     Objective Bounds      |     Work
 Expl Unexpl |  Obj  Depth IntInf | Incumbent    BestBd   Gap | It/Node Time

     0     0   96.00000    0 1258          -   96.00000      -     -   36s
     0     0  102.00000    0 1074          -  102.00000      -     -   38s
     0     0  102.30000    0 1678          -  102.30000      -     -   71s
     0     0  102.30000    0 1661          -  102.30000      -     -   72s
     0     0  102.30000    0 1661          -  102.30000      -     -   73s
     0     0  102.30000    0 1657          -  102.30000      -     -   73s
     0     0  102.30000    0 1901          -  102.30000      -     -   86s
     0     0  102.30000    0 1795          -  102.30000      -     -   89s
     0     0  102.30000    0 1731          -  102.30000      -     -   90s
     0     0  104.02677    0 1620          -  104.02677      -     -  106s
     0     0  104.02677    0 1514          -  104.02677      -     -  109s
     0     0  104.02677    0 1503          -  104.02677      -     -  111s
     0     0  104.02677    0 1497          -  104.02677      -     -  112s
     0     0  105.00000    0 1702          -  105.00000      -     -  147s
     0     0  105.00000    0 1535          -  105.00000      -     -  148s
     0     0  105.00000    0 1710          -  105.00000      -     -  162s
     0     0  105.00000    0  737          -  105.00000      -     -  222s
     0     0  105.00000    0 1440          -  105.00000      -     -  255s
     0     0  105.00000    0 1459          -  105.00000      -     -  259s
     0     0  105.07500    0 1398          -  105.07500      -     -  281s
     0     0  105.07500    0 1382          -  105.07500      -     -  281s
     0     0  105.07500    0 1412          -  105.07500      -     -  286s
     0     0  105.07500    0 1373          -  105.07500      -     -  287s
     0     0  106.00000    0 1662          -  106.00000      -     -  303s
     0     0  106.00000    0 1419          -  106.00000      -     -  308s
     0     0  106.00000    0 1433          -  106.00000      -     -  311s
     0     0  106.00000    0 1387          -  106.00000      -     -  312s
     0     0  109.92909    0 1557          -  109.92909      -     -  343s
     0     0  109.92909    0 1613          -  109.92909      -     -  346s
     0     0  109.92909    0 1485          -  109.92909      -     -  346s
     0     0  109.92909    0 1460          -  109.92909      -     -  357s
     0     0  109.92909    0 1433          -  109.92909      -     -  359s
     0     0  109.92909    0 1410          -  109.92909      -     -  359s
     0     0  109.92909    0 1385          -  109.92909      -     -  380s
     0     0  109.92909    0 1391          -  109.92909      -     -  382s
     0     0  109.92909    0 1323          -  109.92909      -     -  403s
     0     0  109.92909    0 1267          -  109.92909      -     -  404s
     0     0  109.92909    0 1260          -  109.92909      -     -  405s
     0     0  110.28019    0 1570          -  110.28019      -     -  420s
     0     0  110.28019    0 1596          -  110.28019      -     -  426s
     0     0  110.28019    0 1618          -  110.28019      -     -  432s
     0     0  110.28019    0 1544          -  110.28019      -     -  435s
     0     0  110.28019    0 1514          -  110.28019      -     -  436s
     0     0  110.38463    0 1574          -  110.38463      -     -  461s
     0     0  110.38463    0 1478          -  110.38463      -     -  465s
     0     0  110.38463    0 1471          -  110.38463      -     -  466s
     0     0  110.38463    0 1534          -  110.38463      -     -  475s
     0     0  110.38463    0 1530          -  110.38463      -     -  476s
     0     0  110.51426    0 1603          -  110.51426      -     -  498s
     0     0  110.51426    0 1459          -  110.51426      -     -  498s
     0     0  110.51426    0 1609          -  110.51426      -     -  521s
     0     0  110.51426    0 1475          -  110.51426      -     -  521s
     0     0  110.54956    0 1755          -  110.54956      -     -  529s
     0     0  110.54956    0 1666          -  110.54956      -     -  530s
     0     0  110.54956    0 1527          -  110.54956      -     -  549s
     0     0  110.54956    0 1392          -  110.54956      -     -  552s
     0     0  110.54956    0 1365          -  110.54956      -     -  555s
     0     0  110.54956    0 1345          -  110.54956      -     -  555s
     0     0  111.20383    0 1414          -  111.20383      -     -  570s
     0     0  111.20383    0 1322          -  111.20383      -     -  572s
     0     0  111.20383    0 1319          -  111.20383      -     -  572s
     0     0  111.30774    0 1612          -  111.30774      -     -  605s
     0     0  111.30774    0 1503          -  111.30774      -     -  607s
     0     0  111.30774    0 1438          -  111.30774      -     -  607s
     0     0  111.30774    0 1555          -  111.30774      -     -  621s
     0     0  111.30774    0 1461          -  111.30774      -     -  624s
     0     0  111.30774    0 1401          -  111.30774      -     -  625s
     0     0  111.82582    0 1538          -  111.82582      -     -  653s
     0     0  111.82582    0 1478          -  111.82582      -     -  654s
     0     0  111.82582    0 1622          -  111.82582      -     -  709s
     0     0  111.82582    0 1545          -  111.82582      -     -  710s
     0     0  111.86129    0 1446          -  111.86129      -     -  728s
     0     0  111.86129    0 1415          -  111.86129      -     -  731s
     0     0  111.86129    0 1422          -  111.86129      -     -  734s
     0     0  111.86129    0 1491          -  111.86129      -     -  751s
     0     0  111.86129    0 1391          -  111.86129      -     -  752s
     0     0  111.86129    0 1385          -  111.86129      -     -  765s
     0     0  111.86129    0 1398          -  111.86129      -     -  767s
     0     0  111.86129    0 1394          -  111.86129      -     -  767s
     0     0  111.86129    0 1403          -  111.86129      -     -  781s
     0     0  111.86129    0 1290          -  111.86129      -     -  782s
     0     0  111.86129    0 1255          -  111.86129      -     -  783s
     0     0  111.86129    0  676          -  111.86129      -     -  837s
     0     0  111.86129    0  627          -  111.86129      -     -  838s
     0     0  111.86129    0 1039          -  111.86129      -     -  851s
     0     0  111.86129    0  671          -  111.86129      -     -  891s
     0     0  111.86129    0  697          -  111.86129      -     -  892s
     0     0  111.86129    0  748          -  111.86129      -     -  892s
     0     0  111.86129    0  457          -  111.86129      -     -  925s
     0     2  111.86129    0  437          -  111.86129      -     -  983s
     1     4  113.30000    1  584          -  111.95094      -  5440 1296s
     3     6  113.30000    2  584          -  112.78593      -  1841 1547s
     4     6  114.93251    2  582          -  112.78593      -  1474 1565s
     5     6  112.78593    2  941          -  112.78593      -  1322 1572s
     6    12  113.30000    3  647          -  113.30000      -  1130 3040s
    12    22  postponed    4               -  113.30000      -   802 4175s
    14    22  115.59105    4 1042          -  113.30000      -   902 4181s
    16    22  116.48595    4 1258          -  113.30000      -  1065 4187s

Cutting planes:
  Learned: 19
  Gomory: 5
  Cover: 105
  Implied bound: 86
  Clique: 11
  MIR: 1467
  StrongCG: 20
  Zero half: 1
  RLT: 433
  Relax-and-lift: 80

Explored 22 nodes (224580 simplex iterations) in 4214.99 seconds (128.12 work units)
Thread count was 32 (of 32 available processors)

Solution count 0

Time limit reached
Best objective -, best bound 1.133000000000e+02, gap -

Unable to retrieve attribute 'X'

